p wcnf 102 153 154 
1 -22 -53 0 
1 40 67 0 
1 65 68 0 
1 62 -58 0 
1 79 -35 0 
1 -57 42 0 
1 17 102 0 
1 73 40 0 
1 -34 92 0 
1 -54 -87 0 
1 -8 72 0 
1 92 -76 0 
1 -15 84 0 
1 6 64 0 
1 -72 -35 0 
1 -61 -35 0 
1 -2 10 0 
1 -39 72 0 
1 -74 88 0 
1 50 100 0 
1 10 -52 0 
1 -98 10 0 
1 -9 -95 0 
1 95 37 0 
1 86 -68 0 
1 -19 89 0 
1 42 70 0 
1 67 -57 0 
1 -73 4 0 
1 -102 -95 0 
1 15 77 0 
1 -71 -15 0 
1 -14 49 0 
1 45 14 0 
1 60 96 0 
1 -81 49 0 
1 -49 74 0 
1 -74 68 0 
1 19 37 0 
1 -72 -29 0 
1 -83 99 0 
1 -44 -68 0 
1 -93 -68 0 
1 -17 -27 0 
1 -68 -92 0 
1 8 -14 0 
1 -43 37 0 
1 -5 86 0 
1 42 -41 0 
1 63 91 0 
1 -4 -1 0 
1 -41 33 0 
1 75 101 0 
1 -10 -95 0 
1 83 44 0 
1 45 -1 0 
1 -90 -56 0 
1 -20 -66 0 
1 41 -61 0 
1 -35 44 0 
1 41 36 0 
1 -49 -53 0 
1 27 -9 0 
1 101 -21 0 
1 9 -42 0 
1 -73 -57 0 
1 38 -77 0 
1 -84 -44 0 
1 63 58 0 
1 86 4 0 
1 -40 25 0 
1 12 -76 0 
1 92 39 0 
1 92 -53 0 
1 -94 -10 0 
1 -14 -99 0 
1 -84 29 0 
1 -46 -94 0 
1 -16 27 0 
1 64 -49 0 
1 40 -102 0 
1 -9 70 0 
1 -63 -70 0 
1 -5 96 0 
1 -75 -94 0 
1 -89 -29 0 
1 20 37 0 
1 73 -55 0 
1 -69 -21 0 
1 65 8 0 
1 30 65 0 
1 74 7 0 
1 69 -21 0 
1 95 -75 0 
1 72 6 0 
1 20 89 0 
1 45 58 0 
1 47 83 0 
1 -25 -58 0 
1 90 -52 0 
1 -46 72 0 
1 97 -29 0 
1 -78 -41 0 
1 -85 48 0 
1 -8 -17 0 
1 -71 53 0 
1 -73 -92 0 
1 -27 31 0 
1 90 42 0 
1 90 49 0 
1 83 -80 0 
1 3 -87 0 
1 -19 -39 0 
1 28 -40 0 
1 49 -38 0 
1 -8 -95 0 
1 36 40 0 
1 76 -98 0 
1 -16 21 0 
1 75 -9 0 
1 -82 88 0 
1 -66 37 0 
1 101 -81 0 
1 4 62 0 
1 -42 33 0 
1 63 -88 0 
1 51 39 0 
1 42 -89 0 
1 -40 -84 0 
1 101 -56 0 
1 -24 -63 0 
1 58 -20 0 
1 -87 -79 0 
1 66 71 0 
1 31 37 0 
1 -15 14 0 
1 -14 -43 0 
1 51 -88 0 
1 -42 -56 0 
1 -76 -55 0 
1 -80 -71 0 
1 -99 13 0 
1 49 34 0 
1 81 22 0 
1 -52 -61 0 
1 8 96 0 
1 46 -68 0 
1 -49 -47 0 
1 -8 69 0 
1 40 37 0 
1 -20 17 0 
1 -36 -102 0 
1 -38 50 0 
